auctions-data/testes/exemplo1.sol
<?xml version = "1.0" encoding="UTF-8" standalone="yes"?>
<CPLEXSolution version="1.2">
 <header
   problemName="/home/vanessa/Documentos/tcc-auctions/completo/exemplo1.lp"
   solutionName="incumbent"
   solutionIndex="-1"
   objectiveValue="49.5"
   solutionTypeValue="3"
   solutionTypeString="primal"
   solutionStatusValue="101"
   solutionStatusString="integer optimal solution"
   solutionMethodString="mip"
   primalFeasible="1"
   dualFeasible="1"
   MIPNodes="0"
   MIPIterations="0"
   writeLevel="1"/>
 <quality
   epInt="1.0000000000000001e-05"
   epRHS="9.9999999999999995e-07"
   maxIntInfeas="0"
   maxPrimalInfeas="0"
   maxX="1"
   maxSlack="12"/>
 <linearConstraints>
  <constraint name="c1" index="0" slack="0"/>
  <constraint name="c2" index="1" slack="0"/>
  <constraint name="c3" index="2" slack="0"/>
  <constraint name="c4" index="3" slack="0"/>
  <constraint name="c5" index="4" slack="0"/>
  <constraint name="c6" index="5" slack="0"/>
  <constraint name="c7" index="6" slack="0"/>
  <constraint name="c8" index="7" slack="-1"/>
  <constraint name="c9" index="8" slack="-1"/>
  <constraint name="c10" index="9" slack="0"/>
  <constraint name="c11" index="10" slack="0"/>
  <constraint name="c12" index="11" slack="0"/>
  <constraint name="c13" index="12" slack="12"/>
  <constraint name="c14" index="13" slack="12"/>
  <constraint name="c15" index="14" slack="12"/>
 </linearConstraints>
 <variables>
  <variable name="P1T1T2" index="0" value="1"/>
  <variable name="P3T5" index="1" value="1"/>
  <variable name="P2T3" index="2" value="1"/>
  <variable name="P3T4" index="3" value="0"/>
  <variable name="P2T4" index="4" value="1"/>
  <variable name="P1T6" index="5" value="0"/>
  <variable name="P2T6" index="6" value="0"/>
  <variable name="P3T6;" index="7" value="0"/>
  <variable name="P3T6" index="8" value="1"/>
 </variables>
</CPLEXSolution>
